HUN,8,6,615
2,23,3,7,5,14,4,6,1,25,0,4
2,3,0,30,1,23,5,4,4,14,3,4
4,17,5,30,0,30,3,13,2,20,1,7
2,23,3,19,5,18,0,6,4,19,1,17
0,28,4,26,2,15,1,22,5,22,3,30
5,27,1,13,2,12,0,10,4,9,3,24
2,13,5,6,0,3,3,10,4,10,1,30
2,24,4,17,1,14,0,25,3,25,5,4
